35
0	0
1	261
2	0
3	985
4	989
5	261
6	333
7	336
8	469
9	0
10	469
11	510
12	582
13	1437
14	1996
15	1884
16	832
17	1202
18	960
19	752
20	1202
21	1729
22	1725
23	1879
24	1728
25	1882
26	970
27	965
28	337
29	1843
30	2002
31	1725
32	2005
33	2007
34	2008
